&CONTROL
  calculation  = "scf",
  prefix       = "CO2",
  pseudo_dir   = "/home/marc/programs/espresso-5.4.0/pseudo",
  outdir       = "./",
/
&SYSTEM
  ibrav     = 1,
  celldm(1) = 28.0,
  nat       = 3,
  ntyp      = 2,
  ecutwfc   = 120.D0, !better 120
/
&ELECTRONS
  conv_thr    = 1.D-8,
  mixing_beta = 0.7,
/
&IONS
/
ATOMIC_SPECIES
  C 12.010  C.pw-mt_fhi.UPF
  O 15.999  O.pw-mt_fhi.UPF
ATOMIC_POSITIONS (angstrom)
C      -0.009026   -0.020241    0.026760
O       1.167544    0.012723    0.071808
O      -1.185592   -0.053316   -0.017945
K_POINTS (automatic)
1 1 1 0 0 0
